p cnf 365 1443
c p weight 14 -1 0
c p weight -14 1 0
c p weight 16 6.12323399573676603586882014729198302312846062338790031898128063403419218957424163818359375E-17 0
c p weight -16 1 0
c p weight 17 1 0
c p weight -17 1 0
c p weight 18 -1 0
c p weight -18 1 0
c p weight 20 -1 0
c p weight -20 1 0
c p weight 23 -1 0
c p weight -23 1 0
c p weight 26 -1 0
c p weight -26 1 0
c p weight 29 -1 0
c p weight -29 1 0
c p weight 32 -1 0
c p weight -32 1 0
c p weight 35 -1 0
c p weight -35 1 0
c p weight 37 -1 0
c p weight -37 1 0
c p weight 39 6.12323399573676603586882014729198302312846062338790031898128063403419218957424163818359375E-17 0
c p weight -39 1 0
c p weight 40 1 0
c p weight -40 1 0
c p weight 41 -1 0
c p weight -41 1 0
c p weight 43 -1 0
c p weight -43 1 0
c p weight 45 0.70710678118654752440084436210485 0
c p weight -45 1 0
c p weight 46 -1 0
c p weight -46 1 0
c p weight 49 -1 0
c p weight -49 1 0
c p weight 51 0.70710678118654752440084436210485 0
c p weight -51 1 0
c p weight 52 -1 0
c p weight -52 1 0
c p weight 55 -1 0
c p weight -55 1 0
c p weight 57 0.70710678118654752440084436210485 0
c p weight -57 1 0
c p weight 58 -1 0
c p weight -58 1 0
c p weight 60 -1 0
c p weight -60 1 0
c p weight 62 6.12323399573676603586882014729198302312846062338790031898128063403419218957424163818359375E-17 0
c p weight -62 1 0
c p weight 63 1 0
c p weight -63 1 0
c p weight 64 -1 0
c p weight -64 1 0
c p weight 66 -1 0
c p weight -66 1 0
c p weight 68 0.70710678118654752440084436210485 0
c p weight -68 1 0
c p weight 69 -1 0
c p weight -69 1 0
c p weight 71 0.9238795325112867384831361050601117312908172607421875 0
c p weight -71 1 0
c p weight 72 0.382683432365089781779232680491986684501171112060546875 0
c p weight -72 1 0
c p weight 73 -1 0
c p weight -73 1 0
c p weight 76 -1 0
c p weight -76 1 0
c p weight 78 0.9238795325112867384831361050601117312908172607421875 0
c p weight -78 1 0
c p weight 79 -0.382683432365089781779232680491986684501171112060546875 0
c p weight -79 1 0
c p weight 80 -1 0
c p weight -80 1 0
c p weight 83 -1 0
c p weight -83 1 0
c p weight 85 0.9238795325112867384831361050601117312908172607421875 0
c p weight -85 1 0
c p weight 86 0.382683432365089781779232680491986684501171112060546875 0
c p weight -86 1 0
c p weight 87 -1 0
c p weight -87 1 0
c p weight 90 -1 0
c p weight -90 1 0
c p weight 92 0.70710678118654752440084436210485 0
c p weight -92 1 0
c p weight 93 -1 0
c p weight -93 1 0
c p weight 96 -1 0
c p weight -96 1 0
c p weight 98 0.70710678118654752440084436210485 0
c p weight -98 1 0
c p weight 99 -1 0
c p weight -99 1 0
c p weight 101 -1 0
c p weight -101 1 0
c p weight 103 6.12323399573676603586882014729198302312846062338790031898128063403419218957424163818359375E-17 0
c p weight -103 1 0
c p weight 104 1 0
c p weight -104 1 0
c p weight 105 -1 0
c p weight -105 1 0
c p weight 107 -1 0
c p weight -107 1 0
c p weight 109 0.70710678118654752440084436210485 0
c p weight -109 1 0
c p weight 110 -1 0
c p weight -110 1 0
c p weight 112 0.9238795325112867384831361050601117312908172607421875 0
c p weight -112 1 0
c p weight 113 0.382683432365089781779232680491986684501171112060546875 0
c p weight -113 1 0
c p weight 114 -1 0
c p weight -114 1 0
c p weight 116 0.9807852804032304305792422383092343807220458984375 0
c p weight -116 1 0
c p weight 117 0.195090322016128248083788321309839375317096710205078125 0
c p weight -117 1 0
c p weight 118 -1 0
c p weight -118 1 0
c p weight 121 -1 0
c p weight -121 1 0
c p weight 123 0.9807852804032304305792422383092343807220458984375 0
c p weight -123 1 0
c p weight 124 -0.195090322016128248083788321309839375317096710205078125 0
c p weight -124 1 0
c p weight 125 -1 0
c p weight -125 1 0
c p weight 128 -1 0
c p weight -128 1 0
c p weight 130 0.9807852804032304305792422383092343807220458984375 0
c p weight -130 1 0
c p weight 131 0.195090322016128248083788321309839375317096710205078125 0
c p weight -131 1 0
c p weight 132 -1 0
c p weight -132 1 0
c p weight 135 -1 0
c p weight -135 1 0
c p weight 137 0.9238795325112867384831361050601117312908172607421875 0
c p weight -137 1 0
c p weight 138 -0.382683432365089781779232680491986684501171112060546875 0
c p weight -138 1 0
c p weight 139 -1 0
c p weight -139 1 0
c p weight 142 -1 0
c p weight -142 1 0
c p weight 144 0.9238795325112867384831361050601117312908172607421875 0
c p weight -144 1 0
c p weight 145 0.382683432365089781779232680491986684501171112060546875 0
c p weight -145 1 0
c p weight 146 -1 0
c p weight -146 1 0
c p weight 149 -1 0
c p weight -149 1 0
c p weight 151 0.70710678118654752440084436210485 0
c p weight -151 1 0
c p weight 152 -1 0
c p weight -152 1 0
c p weight 155 -1 0
c p weight -155 1 0
c p weight 157 0.70710678118654752440084436210485 0
c p weight -157 1 0
c p weight 158 -1 0
c p weight -158 1 0
c p weight 160 -1 0
c p weight -160 1 0
c p weight 162 6.12323399573676603586882014729198302312846062338790031898128063403419218957424163818359375E-17 0
c p weight -162 1 0
c p weight 163 1 0
c p weight -163 1 0
c p weight 164 -1 0
c p weight -164 1 0
c p weight 166 -1 0
c p weight -166 1 0
c p weight 168 0.70710678118654752440084436210485 0
c p weight -168 1 0
c p weight 169 -1 0
c p weight -169 1 0
c p weight 171 0.9238795325112867384831361050601117312908172607421875 0
c p weight -171 1 0
c p weight 172 0.382683432365089781779232680491986684501171112060546875 0
c p weight -172 1 0
c p weight 173 -1 0
c p weight -173 1 0
c p weight 175 0.9807852804032304305792422383092343807220458984375 0
c p weight -175 1 0
c p weight 176 0.195090322016128248083788321309839375317096710205078125 0
c p weight -176 1 0
c p weight 177 -1 0
c p weight -177 1 0
c p weight 179 0.9951847266721969287317506314138881862163543701171875 0
c p weight -179 1 0
c p weight 180 0.098017140329560603628777926132897846400737762451171875 0
c p weight -180 1 0
c p weight 181 -1 0
c p weight -181 1 0
c p weight 184 -1 0
c p weight -184 1 0
c p weight 186 0.9951847266721969287317506314138881862163543701171875 0
c p weight -186 1 0
c p weight 187 -0.098017140329560603628777926132897846400737762451171875 0
c p weight -187 1 0
c p weight 188 -1 0
c p weight -188 1 0
c p weight 191 -1 0
c p weight -191 1 0
c p weight 193 0.9951847266721969287317506314138881862163543701171875 0
c p weight -193 1 0
c p weight 194 0.098017140329560603628777926132897846400737762451171875 0
c p weight -194 1 0
c p weight 195 -1 0
c p weight -195 1 0
c p weight 198 -1 0
c p weight -198 1 0
c p weight 200 0.9807852804032304305792422383092343807220458984375 0
c p weight -200 1 0
c p weight 201 -0.195090322016128248083788321309839375317096710205078125 0
c p weight -201 1 0
c p weight 202 -1 0
c p weight -202 1 0
c p weight 205 -1 0
c p weight -205 1 0
c p weight 207 0.9807852804032304305792422383092343807220458984375 0
c p weight -207 1 0
c p weight 208 0.195090322016128248083788321309839375317096710205078125 0
c p weight -208 1 0
c p weight 209 -1 0
c p weight -209 1 0
c p weight 212 -1 0
c p weight -212 1 0
c p weight 214 0.9238795325112867384831361050601117312908172607421875 0
c p weight -214 1 0
c p weight 215 -0.382683432365089781779232680491986684501171112060546875 0
c p weight -215 1 0
c p weight 216 -1 0
c p weight -216 1 0
c p weight 219 -1 0
c p weight -219 1 0
c p weight 221 0.9238795325112867384831361050601117312908172607421875 0
c p weight -221 1 0
c p weight 222 0.382683432365089781779232680491986684501171112060546875 0
c p weight -222 1 0
c p weight 223 -1 0
c p weight -223 1 0
c p weight 226 -1 0
c p weight -226 1 0
c p weight 228 0.70710678118654752440084436210485 0
c p weight -228 1 0
c p weight 229 -1 0
c p weight -229 1 0
c p weight 232 -1 0
c p weight -232 1 0
c p weight 234 0.70710678118654752440084436210485 0
c p weight -234 1 0
c p weight 235 -1 0
c p weight -235 1 0
c p weight 237 -1 0
c p weight -237 1 0
c p weight 239 6.12323399573676603586882014729198302312846062338790031898128063403419218957424163818359375E-17 0
c p weight -239 1 0
c p weight 240 1 0
c p weight -240 1 0
c p weight 241 -1 0
c p weight -241 1 0
c p weight 243 -1 0
c p weight -243 1 0
c p weight 245 0.70710678118654752440084436210485 0
c p weight -245 1 0
c p weight 246 -1 0
c p weight -246 1 0
c p weight 248 0.9238795325112867384831361050601117312908172607421875 0
c p weight -248 1 0
c p weight 249 0.382683432365089781779232680491986684501171112060546875 0
c p weight -249 1 0
c p weight 250 -1 0
c p weight -250 1 0
c p weight 252 0.9807852804032304305792422383092343807220458984375 0
c p weight -252 1 0
c p weight 253 0.195090322016128248083788321309839375317096710205078125 0
c p weight -253 1 0
c p weight 254 -1 0
c p weight -254 1 0
c p weight 256 0.9951847266721969287317506314138881862163543701171875 0
c p weight -256 1 0
c p weight 257 0.098017140329560603628777926132897846400737762451171875 0
c p weight -257 1 0
c p weight 258 -1 0
c p weight -258 1 0
c p weight 260 0.9987954562051724050064649418345652520656585693359375 0
c p weight -260 1 0
c p weight 261 0.0490676743274180149345653489945107139647006988525390625 0
c p weight -261 1 0
c p weight 262 -1 0
c p weight -262 1 0
c p weight 265 -1 0
c p weight -265 1 0
c p weight 267 0.9987954562051724050064649418345652520656585693359375 0
c p weight -267 1 0
c p weight 268 -0.0490676743274180149345653489945107139647006988525390625 0
c p weight -268 1 0
c p weight 269 -1 0
c p weight -269 1 0
c p weight 272 -1 0
c p weight -272 1 0
c p weight 274 0.9987954562051724050064649418345652520656585693359375 0
c p weight -274 1 0
c p weight 275 0.0490676743274180149345653489945107139647006988525390625 0
c p weight -275 1 0
c p weight 276 -1 0
c p weight -276 1 0
c p weight 279 -1 0
c p weight -279 1 0
c p weight 281 0.9951847266721969287317506314138881862163543701171875 0
c p weight -281 1 0
c p weight 282 -0.098017140329560603628777926132897846400737762451171875 0
c p weight -282 1 0
c p weight 283 -1 0
c p weight -283 1 0
c p weight 286 -1 0
c p weight -286 1 0
c p weight 288 0.9951847266721969287317506314138881862163543701171875 0
c p weight -288 1 0
c p weight 289 0.098017140329560603628777926132897846400737762451171875 0
c p weight -289 1 0
c p weight 290 -1 0
c p weight -290 1 0
c p weight 293 -1 0
c p weight -293 1 0
c p weight 295 0.9807852804032304305792422383092343807220458984375 0
c p weight -295 1 0
c p weight 296 -0.195090322016128248083788321309839375317096710205078125 0
c p weight -296 1 0
c p weight 297 -1 0
c p weight -297 1 0
c p weight 300 -1 0
c p weight -300 1 0
c p weight 302 0.9807852804032304305792422383092343807220458984375 0
c p weight -302 1 0
c p weight 303 0.195090322016128248083788321309839375317096710205078125 0
c p weight -303 1 0
c p weight 304 -1 0
c p weight -304 1 0
c p weight 307 -1 0
c p weight -307 1 0
c p weight 309 0.9238795325112867384831361050601117312908172607421875 0
c p weight -309 1 0
c p weight 310 -0.382683432365089781779232680491986684501171112060546875 0
c p weight -310 1 0
c p weight 311 -1 0
c p weight -311 1 0
c p weight 314 -1 0
c p weight -314 1 0
c p weight 316 0.9238795325112867384831361050601117312908172607421875 0
c p weight -316 1 0
c p weight 317 0.382683432365089781779232680491986684501171112060546875 0
c p weight -317 1 0
c p weight 318 -1 0
c p weight -318 1 0
c p weight 321 -1 0
c p weight -321 1 0
c p weight 323 0.70710678118654752440084436210485 0
c p weight -323 1 0
c p weight 324 -1 0
c p weight -324 1 0
c p weight 327 -1 0
c p weight -327 1 0
c p weight 329 0.70710678118654752440084436210485 0
c p weight -329 1 0
c p weight 330 -1 0
c p weight -330 1 0
c p weight 332 -1 0
c p weight -332 1 0
c p weight 334 6.12323399573676603586882014729198302312846062338790031898128063403419218957424163818359375E-17 0
c p weight -334 1 0
c p weight 335 1 0
c p weight -335 1 0
c p weight 336 -1 0
c p weight -336 1 0
c p weight 338 -1 0
c p weight -338 1 0
c p weight 341 -1 0
c p weight -341 1 0
c p weight 344 -1 0
c p weight -344 1 0
c p weight 347 -1 0
c p weight -347 1 0
c p weight 350 -1 0
c p weight -350 1 0
c p weight 353 -1 0
c p weight -353 1 0
c p weight 356 -1 0
c p weight -356 1 0
c p weight 359 -1 0
c p weight -359 1 0
c p weight 362 -1 0
c p weight -362 1 0
c p weight 365 -1 0
c p weight -365 1 0
-11 0
-9 0
-7 0
-5 0
-3 0
-1 0
13 11 -12 0
13 -11 12 0
-13 11 12 0
-13 -11 -12 0
-14 11 0
-14 12 0
14 -11 -12 0
15 -11 13 0
-15 11 13 0
-16 13 0
15 -16 -11 0
-15 -16 11 0
15 16 11 -13 0
-15 16 -11 -13 0
-17 13 0
15 -17 11 0
-15 -17 -11 0
15 17 -11 -13 0
-15 17 11 -13 0
-18 15 0
-18 13 0
-18 -11 0
18 -15 11 -13 0
19 15 -13 0
19 -15 13 0
-19 15 13 0
-19 -15 -13 0
-20 15 0
-20 13 0
20 -15 -13 0
21 15 -9 0
21 -15 9 0
-21 15 9 0
-21 -15 -9 0
22 19 -10 0
22 -19 10 0
-22 19 10 0
-22 -19 -10 0
-23 15 0
-23 10 0
-23 9 -19 0
-23 -9 19 0
23 -15 9 19 -10 0
23 -15 -9 -19 -10 0
24 21 -7 0
24 -21 7 0
-24 21 7 0
-24 -21 -7 0
25 10 -8 0
25 -10 8 0
-25 10 8 0
-25 -10 -8 0
-26 21 0
-26 8 0
-26 7 -10 0
-26 -7 10 0
26 -21 7 10 -8 0
26 -21 -7 -10 -8 0
27 24 -5 0
27 -24 5 0
-27 24 5 0
-27 -24 -5 0
28 8 -6 0
28 -8 6 0
-28 8 6 0
-28 -8 -6 0
-29 24 0
-29 6 0
-29 5 -8 0
-29 -5 8 0
29 -24 5 8 -6 0
29 -24 -5 -8 -6 0
30 27 -3 0
30 -27 3 0
-30 27 3 0
-30 -27 -3 0
31 6 -4 0
31 -6 4 0
-31 6 4 0
-31 -6 -4 0
-32 27 0
-32 4 0
-32 3 -6 0
-32 -3 6 0
32 -27 3 6 -4 0
32 -27 -3 -6 -4 0
33 30 -1 0
33 -30 1 0
-33 30 1 0
-33 -30 -1 0
34 4 -2 0
34 -4 2 0
-34 4 2 0
-34 -4 -2 0
-35 30 0
-35 2 0
-35 1 -4 0
-35 -1 4 0
35 -30 1 4 -2 0
35 -30 -1 -4 -2 0
36 15 -22 0
36 -15 22 0
-36 15 22 0
-36 -15 -22 0
-37 15 0
-37 22 0
37 -15 -22 0
38 -15 36 0
-38 15 36 0
-39 36 0
38 -39 -15 0
-38 -39 15 0
38 39 15 -36 0
-38 39 -15 -36 0
-40 36 0
38 -40 15 0
-38 -40 -15 0
38 40 -15 -36 0
-38 40 15 -36 0
-41 38 0
-41 36 0
-41 -15 0
41 -38 15 -36 0
42 38 -36 0
42 -38 36 0
-42 38 36 0
-42 -38 -36 0
-43 38 0
-43 36 0
43 -38 -36 0
44 38 -42 0
-44 38 42 0
45 -38 0
-45 38 0
-46 38 0
-46 42 0
-46 -44 0
46 44 -38 -42 0
47 38 -21 0
47 -38 21 0
-47 38 21 0
-47 -38 -21 0
48 44 -25 0
48 -44 25 0
-48 44 25 0
-48 -44 -25 0
-49 38 0
-49 25 0
-49 21 -44 0
-49 -21 44 0
49 -38 21 44 -25 0
49 -38 -21 -44 -25 0
50 47 -25 0
-50 47 25 0
51 -47 0
-51 47 0
-52 50 0
-52 47 0
-52 -25 0
52 -50 -47 25 0
53 38 -47 0
53 -38 47 0
-53 38 47 0
-53 -38 -47 0
54 48 -50 0
54 -48 50 0
-54 48 50 0
-54 -48 -50 0
-55 38 0
-55 50 0
-55 47 -48 0
-55 -47 48 0
55 -38 47 48 -50 0
55 -38 -47 -48 -50 0
56 53 -50 0
-56 53 50 0
57 -53 0
-57 53 0
-58 53 0
-58 50 0
-58 -56 0
58 56 -53 -50 0
59 53 -56 0
59 -53 56 0
-59 53 56 0
-59 -53 -56 0
-60 53 0
-60 56 0
60 -53 -56 0
61 -53 59 0
-61 53 59 0
-62 59 0
61 -62 -53 0
-61 -62 53 0
61 62 53 -59 0
-61 62 -53 -59 0
-63 59 0
61 -63 53 0
-61 -63 -53 0
61 63 -53 -59 0
-61 63 53 -59 0
-64 61 0
-64 59 0
-64 -53 0
64 -61 53 -59 0
65 61 -59 0
65 -61 59 0
-65 61 59 0
-65 -61 -59 0
-66 61 0
-66 59 0
66 -61 -59 0
67 61 -65 0
-67 61 65 0
68 -61 0
-68 61 0
-69 61 0
-69 65 0
-69 -67 0
69 67 -61 -65 0
70 38 -54 0
-70 38 54 0
-71 38 0
70 -71 -54 0
-70 -71 54 0
70 71 -38 54 0
-70 71 -38 -54 0
-72 38 0
70 -72 54 0
-70 -72 -54 0
70 72 -38 -54 0
-70 72 -38 54 0
-73 38 0
-73 54 0
-73 -70 0
73 70 -38 -54 0
74 38 -24 0
74 -38 24 0
-74 38 24 0
-74 -38 -24 0
75 70 -28 0
75 -70 28 0
-75 70 28 0
-75 -70 -28 0
-76 38 0
-76 28 0
-76 24 -70 0
-76 -24 70 0
76 -38 24 70 -28 0
76 -38 -24 -70 -28 0
77 74 -28 0
-77 74 28 0
-78 74 0
77 -78 -28 0
-77 -78 28 0
77 78 -74 28 0
-77 78 -74 -28 0
-79 74 0
77 -79 28 0
-77 -79 -28 0
77 79 -74 -28 0
-77 79 -74 28 0
-80 74 0
-80 28 0
-80 -77 0
80 77 -74 -28 0
81 38 -74 0
81 -38 74 0
-81 38 74 0
-81 -38 -74 0
82 75 -77 0
82 -75 77 0
-82 75 77 0
-82 -75 -77 0
-83 38 0
-83 77 0
-83 74 -75 0
-83 -74 75 0
83 -38 74 75 -77 0
83 -38 -74 -75 -77 0
84 81 -77 0
-84 81 77 0
-85 81 0
84 -85 -77 0
-84 -85 77 0
84 85 -81 77 0
-84 85 -81 -77 0
-86 81 0
84 -86 77 0
-84 -86 -77 0
84 86 -81 -77 0
-84 86 -81 77 0
-87 81 0
-87 77 0
-87 -84 0
87 84 -81 -77 0
88 61 -81 0
88 -61 81 0
-88 61 81 0
-88 -61 -81 0
89 67 -84 0
89 -67 84 0
-89 67 84 0
-89 -67 -84 0
-90 61 0
-90 84 0
-90 81 -67 0
-90 -81 67 0
90 -61 81 67 -84 0
90 -61 -81 -67 -84 0
91 88 -84 0
-91 88 84 0
92 -88 0
-92 88 0
-93 91 0
-93 88 0
-93 -84 0
93 -91 -88 84 0
94 61 -88 0
94 -61 88 0
-94 61 88 0
-94 -61 -88 0
95 89 -91 0
95 -89 91 0
-95 89 91 0
-95 -89 -91 0
-96 61 0
-96 91 0
-96 88 -89 0
-96 -88 89 0
96 -61 88 89 -91 0
96 -61 -88 -89 -91 0
97 94 -91 0
-97 94 91 0
98 -94 0
-98 94 0
-99 94 0
-99 91 0
-99 -97 0
99 97 -94 -91 0
100 94 -97 0
100 -94 97 0
-100 94 97 0
-100 -94 -97 0
-101 94 0
-101 97 0
101 -94 -97 0
102 -94 100 0
-102 94 100 0
-103 100 0
102 -103 -94 0
-102 -103 94 0
102 103 94 -100 0
-102 103 -94 -100 0
-104 100 0
102 -104 94 0
-102 -104 -94 0
102 104 -94 -100 0
-102 104 94 -100 0
-105 102 0
-105 100 0
-105 -94 0
105 -102 94 -100 0
106 102 -100 0
106 -102 100 0
-106 102 100 0
-106 -102 -100 0
-107 102 0
-107 100 0
107 -102 -100 0
108 102 -106 0
-108 102 106 0
109 -102 0
-109 102 0
-110 102 0
-110 106 0
-110 -108 0
110 108 -102 -106 0
111 61 -95 0
-111 61 95 0
-112 61 0
111 -112 -95 0
-111 -112 95 0
111 112 -61 95 0
-111 112 -61 -95 0
-113 61 0
111 -113 95 0
-111 -113 -95 0
111 113 -61 -95 0
-111 113 -61 95 0
-114 61 0
-114 95 0
-114 -111 0
114 111 -61 -95 0
115 38 -82 0
-115 38 82 0
-116 38 0
115 -116 -82 0
-115 -116 82 0
115 116 -38 82 0
-115 116 -38 -82 0
-117 38 0
115 -117 82 0
-115 -117 -82 0
115 117 -38 -82 0
-115 117 -38 82 0
-118 38 0
-118 82 0
-118 -115 0
118 115 -38 -82 0
119 38 -27 0
119 -38 27 0
-119 38 27 0
-119 -38 -27 0
120 115 -31 0
120 -115 31 0
-120 115 31 0
-120 -115 -31 0
-121 38 0
-121 31 0
-121 27 -115 0
-121 -27 115 0
121 -38 27 115 -31 0
121 -38 -27 -115 -31 0
122 119 -31 0
-122 119 31 0
-123 119 0
122 -123 -31 0
-122 -123 31 0
122 123 -119 31 0
-122 123 -119 -31 0
-124 119 0
122 -124 31 0
-122 -124 -31 0
122 124 -119 -31 0
-122 124 -119 31 0
-125 119 0
-125 31 0
-125 -122 0
125 122 -119 -31 0
126 38 -119 0
126 -38 119 0
-126 38 119 0
-126 -38 -119 0
127 120 -122 0
127 -120 122 0
-127 120 122 0
-127 -120 -122 0
-128 38 0
-128 122 0
-128 119 -120 0
-128 -119 120 0
128 -38 119 120 -122 0
128 -38 -119 -120 -122 0
129 126 -122 0
-129 126 122 0
-130 126 0
129 -130 -122 0
-129 -130 122 0
129 130 -126 122 0
-129 130 -126 -122 0
-131 126 0
129 -131 122 0
-129 -131 -122 0
129 131 -126 -122 0
-129 131 -126 122 0
-132 126 0
-132 122 0
-132 -129 0
132 129 -126 -122 0
133 61 -126 0
133 -61 126 0
-133 61 126 0
-133 -61 -126 0
134 111 -129 0
134 -111 129 0
-134 111 129 0
-134 -111 -129 0
-135 61 0
-135 129 0
-135 126 -111 0
-135 -126 111 0
135 -61 126 111 -129 0
135 -61 -126 -111 -129 0
136 133 -129 0
-136 133 129 0
-137 133 0
136 -137 -129 0
-136 -137 129 0
136 137 -133 129 0
-136 137 -133 -129 0
-138 133 0
136 -138 129 0
-136 -138 -129 0
136 138 -133 -129 0
-136 138 -133 129 0
-139 133 0
-139 129 0
-139 -136 0
139 136 -133 -129 0
140 61 -133 0
140 -61 133 0
-140 61 133 0
-140 -61 -133 0
141 134 -136 0
141 -134 136 0
-141 134 136 0
-141 -134 -136 0
-142 61 0
-142 136 0
-142 133 -134 0
-142 -133 134 0
142 -61 133 134 -136 0
142 -61 -133 -134 -136 0
143 140 -136 0
-143 140 136 0
-144 140 0
143 -144 -136 0
-143 -144 136 0
143 144 -140 136 0
-143 144 -140 -136 0
-145 140 0
143 -145 136 0
-143 -145 -136 0
143 145 -140 -136 0
-143 145 -140 136 0
-146 140 0
-146 136 0
-146 -143 0
146 143 -140 -136 0
147 102 -140 0
147 -102 140 0
-147 102 140 0
-147 -102 -140 0
148 108 -143 0
148 -108 143 0
-148 108 143 0
-148 -108 -143 0
-149 102 0
-149 143 0
-149 140 -108 0
-149 -140 108 0
149 -102 140 108 -143 0
149 -102 -140 -108 -143 0
150 147 -143 0
-150 147 143 0
151 -147 0
-151 147 0
-152 150 0
-152 147 0
-152 -143 0
152 -150 -147 143 0
153 102 -147 0
153 -102 147 0
-153 102 147 0
-153 -102 -147 0
154 148 -150 0
154 -148 150 0
-154 148 150 0
-154 -148 -150 0
-155 102 0
-155 150 0
-155 147 -148 0
-155 -147 148 0
155 -102 147 148 -150 0
155 -102 -147 -148 -150 0
156 153 -150 0
-156 153 150 0
157 -153 0
-157 153 0
-158 153 0
-158 150 0
-158 -156 0
158 156 -153 -150 0
159 153 -156 0
159 -153 156 0
-159 153 156 0
-159 -153 -156 0
-160 153 0
-160 156 0
160 -153 -156 0
161 -153 159 0
-161 153 159 0
-162 159 0
161 -162 -153 0
-161 -162 153 0
161 162 153 -159 0
-161 162 -153 -159 0
-163 159 0
161 -163 153 0
-161 -163 -153 0
161 163 -153 -159 0
-161 163 153 -159 0
-164 161 0
-164 159 0
-164 -153 0
164 -161 153 -159 0
165 161 -159 0
165 -161 159 0
-165 161 159 0
-165 -161 -159 0
-166 161 0
-166 159 0
166 -161 -159 0
167 161 -165 0
-167 161 165 0
168 -161 0
-168 161 0
-169 161 0
-169 165 0
-169 -167 0
169 167 -161 -165 0
170 102 -154 0
-170 102 154 0
-171 102 0
170 -171 -154 0
-170 -171 154 0
170 171 -102 154 0
-170 171 -102 -154 0
-172 102 0
170 -172 154 0
-170 -172 -154 0
170 172 -102 -154 0
-170 172 -102 154 0
-173 102 0
-173 154 0
-173 -170 0
173 170 -102 -154 0
174 61 -141 0
-174 61 141 0
-175 61 0
174 -175 -141 0
-174 -175 141 0
174 175 -61 141 0
-174 175 -61 -141 0
-176 61 0
174 -176 141 0
-174 -176 -141 0
174 176 -61 -141 0
-174 176 -61 141 0
-177 61 0
-177 141 0
-177 -174 0
177 174 -61 -141 0
178 38 -127 0
-178 38 127 0
-179 38 0
178 -179 -127 0
-178 -179 127 0
178 179 -38 127 0
-178 179 -38 -127 0
-180 38 0
178 -180 127 0
-178 -180 -127 0
178 180 -38 -127 0
-178 180 -38 127 0
-181 38 0
-181 127 0
-181 -178 0
181 178 -38 -127 0
182 38 -30 0
182 -38 30 0
-182 38 30 0
-182 -38 -30 0
183 178 -34 0
183 -178 34 0
-183 178 34 0
-183 -178 -34 0
-184 38 0
-184 34 0
-184 30 -178 0
-184 -30 178 0
184 -38 30 178 -34 0
184 -38 -30 -178 -34 0
185 182 -34 0
-185 182 34 0
-186 182 0
185 -186 -34 0
-185 -186 34 0
185 186 -182 34 0
-185 186 -182 -34 0
-187 182 0
185 -187 34 0
-185 -187 -34 0
185 187 -182 -34 0
-185 187 -182 34 0
-188 182 0
-188 34 0
-188 -185 0
188 185 -182 -34 0
189 38 -182 0
189 -38 182 0
-189 38 182 0
-189 -38 -182 0
190 183 -185 0
190 -183 185 0
-190 183 185 0
-190 -183 -185 0
-191 38 0
-191 185 0
-191 182 -183 0
-191 -182 183 0
191 -38 182 183 -185 0
191 -38 -182 -183 -185 0
192 189 -185 0
-192 189 185 0
-193 189 0
192 -193 -185 0
-192 -193 185 0
192 193 -189 185 0
-192 193 -189 -185 0
-194 189 0
192 -194 185 0
-192 -194 -185 0
192 194 -189 -185 0
-192 194 -189 185 0
-195 189 0
-195 185 0
-195 -192 0
195 192 -189 -185 0
196 61 -189 0
196 -61 189 0
-196 61 189 0
-196 -61 -189 0
197 174 -192 0
197 -174 192 0
-197 174 192 0
-197 -174 -192 0
-198 61 0
-198 192 0
-198 189 -174 0
-198 -189 174 0
198 -61 189 174 -192 0
198 -61 -189 -174 -192 0
199 196 -192 0
-199 196 192 0
-200 196 0
199 -200 -192 0
-199 -200 192 0
199 200 -196 192 0
-199 200 -196 -192 0
-201 196 0
199 -201 192 0
-199 -201 -192 0
199 201 -196 -192 0
-199 201 -196 192 0
-202 196 0
-202 192 0
-202 -199 0
202 199 -196 -192 0
203 61 -196 0
203 -61 196 0
-203 61 196 0
-203 -61 -196 0
204 197 -199 0
204 -197 199 0
-204 197 199 0
-204 -197 -199 0
-205 61 0
-205 199 0
-205 196 -197 0
-205 -196 197 0
205 -61 196 197 -199 0
205 -61 -196 -197 -199 0
206 203 -199 0
-206 203 199 0
-207 203 0
206 -207 -199 0
-206 -207 199 0
206 207 -203 199 0
-206 207 -203 -199 0
-208 203 0
206 -208 199 0
-206 -208 -199 0
206 208 -203 -199 0
-206 208 -203 199 0
-209 203 0
-209 199 0
-209 -206 0
209 206 -203 -199 0
210 102 -203 0
210 -102 203 0
-210 102 203 0
-210 -102 -203 0
211 170 -206 0
211 -170 206 0
-211 170 206 0
-211 -170 -206 0
-212 102 0
-212 206 0
-212 203 -170 0
-212 -203 170 0
212 -102 203 170 -206 0
212 -102 -203 -170 -206 0
213 210 -206 0
-213 210 206 0
-214 210 0
213 -214 -206 0
-213 -214 206 0
213 214 -210 206 0
-213 214 -210 -206 0
-215 210 0
213 -215 206 0
-213 -215 -206 0
213 215 -210 -206 0
-213 215 -210 206 0
-216 210 0
-216 206 0
-216 -213 0
216 213 -210 -206 0
217 102 -210 0
217 -102 210 0
-217 102 210 0
-217 -102 -210 0
218 211 -213 0
218 -211 213 0
-218 211 213 0
-218 -211 -213 0
-219 102 0
-219 213 0
-219 210 -211 0
-219 -210 211 0
219 -102 210 211 -213 0
219 -102 -210 -211 -213 0
220 217 -213 0
-220 217 213 0
-221 217 0
220 -221 -213 0
-220 -221 213 0
220 221 -217 213 0
-220 221 -217 -213 0
-222 217 0
220 -222 213 0
-220 -222 -213 0
220 222 -217 -213 0
-220 222 -217 213 0
-223 217 0
-223 213 0
-223 -220 0
223 220 -217 -213 0
224 161 -217 0
224 -161 217 0
-224 161 217 0
-224 -161 -217 0
225 167 -220 0
225 -167 220 0
-225 167 220 0
-225 -167 -220 0
-226 161 0
-226 220 0
-226 217 -167 0
-226 -217 167 0
226 -161 217 167 -220 0
226 -161 -217 -167 -220 0
227 224 -220 0
-227 224 220 0
228 -224 0
-228 224 0
-229 227 0
-229 224 0
-229 -220 0
229 -227 -224 220 0
230 161 -224 0
230 -161 224 0
-230 161 224 0
-230 -161 -224 0
231 225 -227 0
231 -225 227 0
-231 225 227 0
-231 -225 -227 0
-232 161 0
-232 227 0
-232 224 -225 0
-232 -224 225 0
232 -161 224 225 -227 0
232 -161 -224 -225 -227 0
233 230 -227 0
-233 230 227 0
234 -230 0
-234 230 0
-235 230 0
-235 227 0
-235 -233 0
235 233 -230 -227 0
236 230 -233 0
236 -230 233 0
-236 230 233 0
-236 -230 -233 0
-237 230 0
-237 233 0
237 -230 -233 0
238 -230 236 0
-238 230 236 0
-239 236 0
238 -239 -230 0
-238 -239 230 0
238 239 230 -236 0
-238 239 -230 -236 0
-240 236 0
238 -240 230 0
-238 -240 -230 0
238 240 -230 -236 0
-238 240 230 -236 0
-241 238 0
-241 236 0
-241 -230 0
241 -238 230 -236 0
242 238 -236 0
242 -238 236 0
-242 238 236 0
-242 -238 -236 0
-243 238 0
-243 236 0
243 -238 -236 0
244 238 -242 0
-244 238 242 0
245 -238 0
-245 238 0
-246 238 0
-246 242 0
-246 -244 0
246 244 -238 -242 0
247 161 -231 0
-247 161 231 0
-248 161 0
247 -248 -231 0
-247 -248 231 0
247 248 -161 231 0
-247 248 -161 -231 0
-249 161 0
247 -249 231 0
-247 -249 -231 0
247 249 -161 -231 0
-247 249 -161 231 0
-250 161 0
-250 231 0
-250 -247 0
250 247 -161 -231 0
251 102 -218 0
-251 102 218 0
-252 102 0
251 -252 -218 0
-251 -252 218 0
251 252 -102 218 0
-251 252 -102 -218 0
-253 102 0
251 -253 218 0
-251 -253 -218 0
251 253 -102 -218 0
-251 253 -102 218 0
-254 102 0
-254 218 0
-254 -251 0
254 251 -102 -218 0
255 61 -204 0
-255 61 204 0
-256 61 0
255 -256 -204 0
-255 -256 204 0
255 256 -61 204 0
-255 256 -61 -204 0
-257 61 0
255 -257 204 0
-255 -257 -204 0
255 257 -61 -204 0
-255 257 -61 204 0
-258 61 0
-258 204 0
-258 -255 0
258 255 -61 -204 0
259 38 -190 0
-259 38 190 0
-260 38 0
259 -260 -190 0
-259 -260 190 0
259 260 -38 190 0
-259 260 -38 -190 0
-261 38 0
259 -261 190 0
-259 -261 -190 0
259 261 -38 -190 0
-259 261 -38 190 0
-262 38 0
-262 190 0
-262 -259 0
262 259 -38 -190 0
263 38 -33 0
263 -38 33 0
-263 38 33 0
-263 -38 -33 0
264 259 -2 0
264 -259 2 0
-264 259 2 0
-264 -259 -2 0
-265 38 0
-265 2 0
-265 33 -259 0
-265 -33 259 0
265 -38 33 259 -2 0
265 -38 -33 -259 -2 0
266 263 -2 0
-266 263 2 0
-267 263 0
266 -267 -2 0
-266 -267 2 0
266 267 -263 2 0
-266 267 -263 -2 0
-268 263 0
266 -268 2 0
-266 -268 -2 0
266 268 -263 -2 0
-266 268 -263 2 0
-269 263 0
-269 2 0
-269 -266 0
269 266 -263 -2 0
270 38 -263 0
270 -38 263 0
-270 38 263 0
-270 -38 -263 0
271 264 -266 0
271 -264 266 0
-271 264 266 0
-271 -264 -266 0
-272 38 0
-272 266 0
-272 263 -264 0
-272 -263 264 0
272 -38 263 264 -266 0
272 -38 -263 -264 -266 0
273 270 -266 0
-273 270 266 0
-274 270 0
273 -274 -266 0
-273 -274 266 0
273 274 -270 266 0
-273 274 -270 -266 0
-275 270 0
273 -275 266 0
-273 -275 -266 0
273 275 -270 -266 0
-273 275 -270 266 0
-276 270 0
-276 266 0
-276 -273 0
276 273 -270 -266 0
277 61 -270 0
277 -61 270 0
-277 61 270 0
-277 -61 -270 0
278 255 -273 0
278 -255 273 0
-278 255 273 0
-278 -255 -273 0
-279 61 0
-279 273 0
-279 270 -255 0
-279 -270 255 0
279 -61 270 255 -273 0
279 -61 -270 -255 -273 0
280 277 -273 0
-280 277 273 0
-281 277 0
280 -281 -273 0
-280 -281 273 0
280 281 -277 273 0
-280 281 -277 -273 0
-282 277 0
280 -282 273 0
-280 -282 -273 0
280 282 -277 -273 0
-280 282 -277 273 0
-283 277 0
-283 273 0
-283 -280 0
283 280 -277 -273 0
284 61 -277 0
284 -61 277 0
-284 61 277 0
-284 -61 -277 0
285 278 -280 0
285 -278 280 0
-285 278 280 0
-285 -278 -280 0
-286 61 0
-286 280 0
-286 277 -278 0
-286 -277 278 0
286 -61 277 278 -280 0
286 -61 -277 -278 -280 0
287 284 -280 0
-287 284 280 0
-288 284 0
287 -288 -280 0
-287 -288 280 0
287 288 -284 280 0
-287 288 -284 -280 0
-289 284 0
287 -289 280 0
-287 -289 -280 0
287 289 -284 -280 0
-287 289 -284 280 0
-290 284 0
-290 280 0
-290 -287 0
290 287 -284 -280 0
291 102 -284 0
291 -102 284 0
-291 102 284 0
-291 -102 -284 0
292 251 -287 0
292 -251 287 0
-292 251 287 0
-292 -251 -287 0
-293 102 0
-293 287 0
-293 284 -251 0
-293 -284 251 0
293 -102 284 251 -287 0
293 -102 -284 -251 -287 0
294 291 -287 0
-294 291 287 0
-295 291 0
294 -295 -287 0
-294 -295 287 0
294 295 -291 287 0
-294 295 -291 -287 0
-296 291 0
294 -296 287 0
-294 -296 -287 0
294 296 -291 -287 0
-294 296 -291 287 0
-297 291 0
-297 287 0
-297 -294 0
297 294 -291 -287 0
298 102 -291 0
298 -102 291 0
-298 102 291 0
-298 -102 -291 0
299 292 -294 0
299 -292 294 0
-299 292 294 0
-299 -292 -294 0
-300 102 0
-300 294 0
-300 291 -292 0
-300 -291 292 0
300 -102 291 292 -294 0
300 -102 -291 -292 -294 0
301 298 -294 0
-301 298 294 0
-302 298 0
301 -302 -294 0
-301 -302 294 0
301 302 -298 294 0
-301 302 -298 -294 0
-303 298 0
301 -303 294 0
-301 -303 -294 0
301 303 -298 -294 0
-301 303 -298 294 0
-304 298 0
-304 294 0
-304 -301 0
304 301 -298 -294 0
305 161 -298 0
305 -161 298 0
-305 161 298 0
-305 -161 -298 0
306 247 -301 0
306 -247 301 0
-306 247 301 0
-306 -247 -301 0
-307 161 0
-307 301 0
-307 298 -247 0
-307 -298 247 0
307 -161 298 247 -301 0
307 -161 -298 -247 -301 0
308 305 -301 0
-308 305 301 0
-309 305 0
308 -309 -301 0
-308 -309 301 0
308 309 -305 301 0
-308 309 -305 -301 0
-310 305 0
308 -310 301 0
-308 -310 -301 0
308 310 -305 -301 0
-308 310 -305 301 0
-311 305 0
-311 301 0
-311 -308 0
311 308 -305 -301 0
312 161 -305 0
312 -161 305 0
-312 161 305 0
-312 -161 -305 0
313 306 -308 0
313 -306 308 0
-313 306 308 0
-313 -306 -308 0
-314 161 0
-314 308 0
-314 305 -306 0
-314 -305 306 0
314 -161 305 306 -308 0
314 -161 -305 -306 -308 0
315 312 -308 0
-315 312 308 0
-316 312 0
315 -316 -308 0
-315 -316 308 0
315 316 -312 308 0
-315 316 -312 -308 0
-317 312 0
315 -317 308 0
-315 -317 -308 0
315 317 -312 -308 0
-315 317 -312 308 0
-318 312 0
-318 308 0
-318 -315 0
318 315 -312 -308 0
319 238 -312 0
319 -238 312 0
-319 238 312 0
-319 -238 -312 0
320 244 -315 0
320 -244 315 0
-320 244 315 0
-320 -244 -315 0
-321 238 0
-321 315 0
-321 312 -244 0
-321 -312 244 0
321 -238 312 244 -315 0
321 -238 -312 -244 -315 0
322 319 -315 0
-322 319 315 0
323 -319 0
-323 319 0
-324 322 0
-324 319 0
-324 -315 0
324 -322 -319 315 0
325 238 -319 0
325 -238 319 0
-325 238 319 0
-325 -238 -319 0
326 320 -322 0
326 -320 322 0
-326 320 322 0
-326 -320 -322 0
-327 238 0
-327 322 0
-327 319 -320 0
-327 -319 320 0
327 -238 319 320 -322 0
327 -238 -319 -320 -322 0
328 325 -322 0
-328 325 322 0
329 -325 0
-329 325 0
-330 325 0
-330 322 0
-330 -328 0
330 328 -325 -322 0
331 325 -328 0
331 -325 328 0
-331 325 328 0
-331 -325 -328 0
-332 325 0
-332 328 0
332 -325 -328 0
333 -325 331 0
-333 325 331 0
-334 331 0
333 -334 -325 0
-333 -334 325 0
333 334 325 -331 0
-333 334 -325 -331 0
-335 331 0
333 -335 325 0
-333 -335 -325 0
333 335 -325 -331 0
-333 335 325 -331 0
-336 333 0
-336 331 0
-336 -325 0
336 -333 325 -331 0
337 333 -331 0
337 -333 331 0
-337 333 331 0
-337 -333 -331 0
-338 333 0
-338 331 0
338 -333 -331 0
339 333 -38 0
339 -333 38 0
-339 333 38 0
-339 -333 -38 0
340 337 -271 0
340 -337 271 0
-340 337 271 0
-340 -337 -271 0
-341 333 0
-341 271 0
-341 38 -337 0
-341 -38 337 0
341 -333 38 337 -271 0
341 -333 -38 -337 -271 0
342 238 -61 0
342 -238 61 0
-342 238 61 0
-342 -238 -61 0
343 326 -285 0
343 -326 285 0
-343 326 285 0
-343 -326 -285 0
-344 238 0
-344 285 0
-344 61 -326 0
-344 -61 326 0
344 -238 61 326 -285 0
344 -238 -61 -326 -285 0
345 161 -102 0
345 -161 102 0
-345 161 102 0
-345 -161 -102 0
346 313 -299 0
346 -313 299 0
-346 313 299 0
-346 -313 -299 0
-347 161 0
-347 299 0
-347 102 -313 0
-347 -102 313 0
347 -161 102 313 -299 0
347 -161 -102 -313 -299 0
348 345 -161 0
348 -345 161 0
-348 345 161 0
-348 -345 -161 0
349 299 -346 0
349 -299 346 0
-349 299 346 0
-349 -299 -346 0
-350 345 0
-350 346 0
-350 161 -299 0
-350 -161 299 0
350 -345 161 299 -346 0
350 -345 -161 -299 -346 0
351 348 -345 0
351 -348 345 0
-351 348 345 0
-351 -348 -345 0
352 346 -349 0
352 -346 349 0
-352 346 349 0
-352 -346 -349 0
-353 348 0
-353 349 0
-353 345 -346 0
-353 -345 346 0
353 -348 345 346 -349 0
353 -348 -345 -346 -349 0
354 342 -238 0
354 -342 238 0
-354 342 238 0
-354 -342 -238 0
355 285 -343 0
355 -285 343 0
-355 285 343 0
-355 -285 -343 0
-356 342 0
-356 343 0
-356 238 -285 0
-356 -238 285 0
356 -342 238 285 -343 0
356 -342 -238 -285 -343 0
357 354 -342 0
357 -354 342 0
-357 354 342 0
-357 -354 -342 0
358 343 -355 0
358 -343 355 0
-358 343 355 0
-358 -343 -355 0
-359 354 0
-359 355 0
-359 342 -343 0
-359 -342 343 0
359 -354 342 343 -355 0
359 -354 -342 -343 -355 0
360 339 -333 0
360 -339 333 0
-360 339 333 0
-360 -339 -333 0
361 271 -340 0
361 -271 340 0
-361 271 340 0
-361 -271 -340 0
-362 339 0
-362 340 0
-362 333 -271 0
-362 -333 271 0
362 -339 333 271 -340 0
362 -339 -333 -271 -340 0
363 360 -339 0
363 -360 339 0
-363 360 339 0
-363 -360 -339 0
364 340 -361 0
364 -340 361 0
-364 340 361 0
-364 -340 -361 0
-365 360 0
-365 361 0
-365 339 -340 0
-365 -339 340 0
365 -360 339 340 -361 0
365 -360 -339 -340 -361 0
-360 0
-354 0
-358 0
-348 0
-352 0
-351 0
-349 0
-357 0
-355 0
-363 0
-361 0
